
  32    4
  10   10   10   10

   0   0   0   0   0   3 2 3 24 
   1   1   0   1   1   2 31 4 
   3   5   1   8   0   2 31 4 
   8   4   5   3   0   2 8 5 
   3   5   3   5   0   2 12 6 
   6   3   4   6   0   2 30 7 
   6   5   0   2   4   2 18 9 
   9   0   3   1   4   2 12 10 
   3   0   5   4   5   1 10 
   1   4   3   2   0   3 23 15 11 
   4   4   5   5   0   2 20 13 
   8   2   0   3   6   2 23 13 
   8   0   3   5   4   1 14 
  10   6   0   3   3   2 29 16 
   5   4   5   0   3   2 29 17 
  10   4   4   7   0   1 17 
   2   0   3   7   2   3 28 22 19 
   1   7   0   5   7   2 28 19 
  10   0   6   2   3   3 27 26 21 
   8   5   0   1   3   1 21 
   9   3   2   3   0   1 25 
   9   3   6   4   0   1 27 
   1   7   0   9   4   1 29 
  10   1   5   0   2   1 26 
   7   5   0   3   5   1 32
   7   5   0   3   3   1 32
   7   0   7   4   9   1 32
   9   0   5   5   3   1 32
   2   1   4   0   5   1 32
   3   0   3   4   6   1 32
  10   0   2   3   2   1 32
   0   0   0   0   0   0 
